benchmarks/bfuzz0/669392788624157392879286982386812994.smt2
(set-logic QF_FP)
(declare-const x0 (_ FloatingPoint 11 53))
(declare-const x1 (_ FloatingPoint 11 53))
(assert (fp.gt (fp.add RNE (fp.neg (fp.add RNE (fp.mul RNE x0 x0) (fp.neg x1))) (fp.mul RNE (fp.neg (fp.add RNE x0 x1)) (fp.sub RNE (fp.mul RNE x1 x0) (fp.add RNE x0 x1)))) (fp.sub RNE (fp.div RNE (fp.add RNE (fp.sub RNE x1 x1) (fp.neg x1)) (fp.mul RNE (fp.neg x1) (fp.div RNE x0 x0))) (fp.add RNE (fp.mul RNE (fp.neg x0) (fp.mul RNE x1 x1)) (fp.sub RNE (fp.mul RNE x0 x1) (fp.neg x0))))))
(check-sat)
