db/data/669392788624157392879286982386812994.z3.out
sat
-------------------
171.166737127
